p tw 64 6721 2 
1 3 
1 4 
1 5 
1 6 
1 7 
1 8 
1 9 
1 16 
1 17 
1 23 
1 25 
1 30 
1 33 
1 37 
1 41 
1 44 
1 49 
1 51 
1 57 
1 58 
2 3 
2 4 
2 5 
2 6 
2 7 
2 8 
2 9 
2 10 
2 18 
2 24 
2 26 
2 31 
2 34 
2 38 
2 42 
2 45 
2 50 
2 52 
2 58 
2 59 
3 4 
3 5 
3 6 
3 7 
3 8 
3 10 
3 11 
3 17 
3 19 
3 27 
3 32 
3 35 
3 39 
3 43 
3 46 
3 51 
3 53 
3 59 
3 60 
4 5 
4 6 
4 7 
4 8 
4 11 
4 12 
4 18 
4 20 
4 25 
4 28 
4 36 
4 40 
4 44 
4 47 
4 52 
4 54 
4 60 
4 61 
5 6 
5 7 
5 8 
5 12 
5 13 
5 19 
5 21 
5 26 
5 29 
5 33 
5 37 
5 45 
5 48 
5 53 
5 55 
5 61 
5 62 
6 7 
6 8 
6 13 
6 14 
6 20 
6 22 
6 27 
6 30 
6 34 
6 38 
6 41 
6 46 
6 54 
6 56 
6 62 
6 63 
7 8 
7 14 
7 15 
7 21 
7 23 
7 28 
7 31 
7 35 
7 39 
7 42 
7 47 
7 49 
7 55 
7 63 
7 64 
8 15 
8 16 
8 22 
8 24 
8 29 
8 32 
8 36 
8 40 
8 43 
8 48 
8 50 
8 56 
8 57 
8 64 
9 10 
9 11 
9 12 
9 13 
9 14 
9 15 
9 16 
9 17 
9 24 
9 25 
9 31 
9 33 
9 38 
9 41 
9 45 
9 49 
9 52 
9 57 
9 59 
10 11 
10 12 
10 13 
10 14 
10 15 
10 16 
10 17 
10 18 
10 26 
10 32 
10 34 
10 39 
10 42 
10 46 
10 50 
10 53 
10 58 
10 60 
11 12 
11 13 
11 14 
11 15 
11 16 
11 18 
11 19 
11 25 
11 27 
11 35 
11 40 
11 43 
11 47 
11 51 
11 54 
11 59 
11 61 
12 13 
12 14 
12 15 
12 16 
12 19 
12 20 
12 26 
12 28 
12 33 
12 36 
12 44 
12 48 
12 52 
12 55 
12 60 
12 62 
13 14 
13 15 
13 16 
13 20 
13 21 
13 27 
13 29 
13 34 
13 37 
13 41 
13 45 
13 53 
13 56 
13 61 
13 63 
14 15 
14 16 
14 21 
14 22 
14 28 
14 30 
14 35 
14 38 
14 42 
14 46 
14 49 
14 54 
14 62 
14 64 
15 16 
15 22 
15 23 
15 29 
15 31 
15 36 
15 39 
15 43 
15 47 
15 50 
15 55 
15 57 
15 63 
16 23 
16 24 
16 30 
16 32 
16 37 
16 40 
16 44 
16 48 
16 51 
16 56 
16 58 
16 64 
17 18 
17 19 
17 20 
17 21 
17 22 
17 23 
17 24 
17 25 
17 32 
17 33 
17 39 
17 41 
17 46 
17 49 
17 53 
17 57 
17 60 
18 19 
18 20 
18 21 
18 22 
18 23 
18 24 
18 25 
18 26 
18 34 
18 40 
18 42 
18 47 
18 50 
18 54 
18 58 
18 61 
19 20 
19 21 
19 22 
19 23 
19 24 
19 26 
19 27 
19 33 
19 35 
19 43 
19 48 
19 51 
19 55 
19 59 
19 62 
20 21 
20 22 
20 23 
20 24 
20 27 
20 28 
20 34 
20 36 
20 41 
20 44 
20 52 
20 56 
20 60 
20 63 
21 22 
21 23 
21 24 
21 28 
21 29 
21 35 
21 37 
21 42 
21 45 
21 49 
21 53 
21 61 
21 64 
22 23 
22 24 
22 29 
22 30 
22 36 
22 38 
22 43 
22 46 
22 50 
22 54 
22 57 
22 62 
23 24 
23 30 
23 31 
23 37 
23 39 
23 44 
23 47 
23 51 
23 55 
23 58 
23 63 
24 31 
24 32 
24 38 
24 40 
24 45 
24 48 
24 52 
24 56 
24 59 
24 64 
25 26 
25 27 
25 28 
25 29 
25 30 
25 31 
25 32 
25 33 
25 40 
25 41 
25 47 
25 49 
25 54 
25 57 
25 61 
26 27 
26 28 
26 29 
26 30 
26 31 
26 32 
26 33 
26 34 
26 42 
26 48 
26 50 
26 55 
26 58 
26 62 
27 28 
27 29 
27 30 
27 31 
27 32 
27 34 
27 35 
27 41 
27 43 
27 51 
27 56 
27 59 
27 63 
28 29 
28 30 
28 31 
28 32 
28 35 
28 36 
28 42 
28 44 
28 49 
28 52 
28 60 
28 64 
29 30 
29 31 
29 32 
29 36 
29 37 
29 43 
29 45 
29 50 
29 53 
29 57 
29 61 
30 31 
30 32 
30 37 
30 38 
30 44 
30 46 
30 51 
30 54 
30 58 
30 62 
31 32 
31 38 
31 39 
31 45 
31 47 
31 52 
31 55 
31 59 
31 63 
32 39 
32 40 
32 46 
32 48 
32 53 
32 56 
32 60 
32 64 
33 34 
33 35 
33 36 
33 37 
33 38 
33 39 
33 40 
33 41 
33 48 
33 49 
33 55 
33 57 
33 62 
34 35 
34 36 
34 37 
34 38 
34 39 
34 40 
34 41 
34 42 
34 50 
34 56 
34 58 
34 63 
35 36 
35 37 
35 38 
35 39 
35 40 
35 42 
35 43 
35 49 
35 51 
35 59 
35 64 
36 37 
36 38 
36 39 
36 40 
36 43 
36 44 
36 50 
36 52 
36 57 
36 60 
37 38 
37 39 
37 40 
37 44 
37 45 
37 51 
37 53 
37 58 
37 61 
38 39 
38 40 
38 45 
38 46 
38 52 
38 54 
38 59 
38 62 
39 40 
39 46 
39 47 
39 53 
39 55 
39 60 
39 63 
40 47 
40 48 
40 54 
40 56 
40 61 
40 64 
41 42 
41 43 
41 44 
41 45 
41 46 
41 47 
41 48 
41 49 
41 56 
41 57 
41 63 
42 43 
42 44 
42 45 
42 46 
42 47 
42 48 
42 49 
42 50 
42 58 
42 64 
43 44 
43 45 
43 46 
43 47 
43 48 
43 50 
43 51 
43 57 
43 59 
44 45 
44 46 
44 47 
44 48 
44 51 
44 52 
44 58 
44 60 
45 46 
45 47 
45 48 
45 52 
45 53 
45 59 
45 61 
46 47 
46 48 
46 53 
46 54 
46 60 
46 62 
47 48 
47 54 
47 55 
47 61 
47 63 
48 55 
48 56 
48 62 
48 64 
49 50 
49 51 
49 52 
49 53 
49 54 
49 55 
49 56 
49 57 
49 64 
50 51 
50 52 
50 53 
50 54 
50 55 
50 56 
50 57 
50 58 
51 52 
51 53 
51 54 
51 55 
51 56 
51 58 
51 59 
52 53 
52 54 
52 55 
52 56 
52 59 
52 60 
53 54 
53 55 
53 56 
53 60 
53 61 
54 55 
54 56 
54 61 
54 62 
55 56 
55 62 
55 63 
56 63 
56 64 
57 58 
57 59 
57 60 
57 61 
57 62 
57 63 
57 64 
58 59 
58 60 
58 61 
58 62 
58 63 
58 64 
59 60 
59 61 
59 62 
59 63 
59 64 
60 61 
60 62 
60 63 
60 64 
61 62 
61 63 
61 64 
62 63 
62 64 
63 64 
